122 5
10 10 10 10 10 

0 0 0 0 0 0 5 2 14 26 38 50 
0 0 0 0 0 0 2 3 4 
4 0 0 1 0 0 3 12 11 5 
7 0 0 4 0 0 3 12 11 7 
8 0 0 2 0 0 1 6 
1 0 0 4 0 0 1 7 
3 0 0 6 0 0 1 8 
4 0 0 7 0 0 1 9 
2 0 0 5 0 0 1 10 
9 0 0 6 0 0 2 13 76 
10 0 0 8 0 0 1 13 
10 0 0 7 0 0 1 13 
0 0 0 0 0 0 1 62 
0 0 0 0 0 0 1 15 
3 0 0 0 1 0 1 16 
4 0 0 0 3 0 1 17 
1 0 0 0 6 0 2 20 18 
10 0 0 0 5 0 2 22 19 
3 0 0 0 5 0 2 24 21 
10 0 0 0 6 0 1 21 
1 0 0 0 8 0 1 23 
1 0 0 0 4 0 1 24 
1 0 0 0 9 0 1 25 
9 0 0 0 3 0 1 25 
0 0 0 0 0 0 1 62 
0 0 0 0 0 0 2 27 29 
10 0 0 0 0 2 1 28 
8 0 0 0 0 3 3 36 35 30 
9 0 0 0 0 8 2 35 32 
8 0 0 0 0 6 1 31 
6 0 0 0 0 2 1 32 
8 0 0 0 0 4 1 33 
4 0 0 0 0 10 1 34 
2 0 0 0 0 7 1 37 
5 0 0 0 0 6 1 37 
6 0 0 0 0 2 1 37 
0 0 0 0 0 0 1 62 
0 0 0 0 0 0 4 39 41 45 46 
7 0 0 0 1 0 1 40 
4 0 0 0 3 0 1 42 
6 0 0 0 5 0 1 42 
7 0 0 0 7 0 1 43 
4 0 0 0 4 0 1 44 
8 0 0 0 8 0 1 47 
5 0 0 0 3 0 1 47 
3 0 0 0 4 0 1 47 
5 0 0 0 9 0 1 48 
2 0 0 0 6 0 1 49 
0 0 0 0 0 0 1 62 
0 0 0 0 0 0 2 51 56 
4 0 1 0 0 0 1 52 
8 0 3 0 0 0 2 60 53 
7 0 1 0 0 0 1 54 
10 0 5 0 0 0 2 59 55 
8 0 4 0 0 0 1 57 
5 0 7 0 0 0 1 57 
1 0 5 0 0 0 1 58 
4 0 10 0 0 0 1 61 
5 0 7 0 0 0 1 61 
2 0 7 0 0 0 1 61 
0 0 0 0 0 0 1 62 
0 0 0 0 0 0 2 63 75 
0 0 0 0 0 0 2 64 67 
9 0 1 0 0 0 1 65 
2 0 2 0 0 0 2 70 66 
3 0 5 0 0 0 1 68 
1 0 7 0 0 0 1 68 
2 0 7 0 0 0 1 69 
6 0 8 0 0 0 2 73 71 
3 0 6 0 0 0 2 73 72 
8 0 4 0 0 0 1 72 
10 0 5 0 0 0 1 74 
9 0 5 0 0 0 1 74 
0 0 0 0 0 0 1 87 
0 0 0 0 0 0 3 76 82 85 
3 0 1 0 0 0 1 77 
1 0 7 0 0 0 1 78 
5 0 4 0 0 0 2 84 79 
2 0 6 0 0 0 1 80 
4 0 4 0 0 0 1 81 
7 0 6 0 0 0 1 83 
5 0 9 0 0 0 1 84 
3 0 6 0 0 0 1 86 
9 0 3 0 0 0 1 86 
4 0 4 0 0 0 1 86 
0 0 0 0 0 0 1 87 
0 0 0 0 0 0 1 88 
9 1 0 0 0 0 2 90 89 
9 5 0 0 0 0 1 91 
6 5 0 0 0 0 1 91 
1 7 0 0 0 0 2 94 92 
9 4 0 0 0 0 1 93 
9 4 0 0 0 0 1 95 
8 5 0 0 0 0 1 95 
3 9 0 0 0 0 2 97 96 
10 4 0 0 0 0 1 98 
8 6 0 0 0 0 1 98 
0 0 0 0 0 0 1 99 
0 0 0 0 0 0 3 100 101 109 
3 0 1 0 0 0 1 102 
10 0 6 0 0 0 1 102 
3 0 7 0 0 0 1 103 
4 0 6 0 0 0 2 108 104 
3 0 6 0 0 0 1 105 
1 0 3 0 0 0 1 106 
8 0 5 0 0 0 1 107 
6 0 5 0 0 0 1 110 
1 0 8 0 0 0 1 110 
8 0 3 0 0 0 1 110 
0 0 0 0 0 0 1 111 
0 0 0 0 0 0 3 112 117 119 
7 0 0 0 0 1 1 113 
8 0 0 0 0 5 1 114 
9 0 0 0 0 4 2 121 115 
10 0 0 0 0 6 1 116 
6 0 0 0 0 3 1 118 
1 0 0 0 0 4 1 118 
10 0 0 0 0 8 1 120 
2 0 0 0 0 7 1 121 
7 0 0 0 0 6 1 122 
8 0 0 0 0 6 1 122 
0 0 0 0 0 0 0 
